proyfinal/src/viki/013/andrea/andrea-localstore/experimentInOfficeAgust.take6/worker_10/4663c252-44f2-4f90-aa4f-62cffe99c054.als.cnf.out
Reading from standard input... Use '--help' for help.
============================[ Problem Statistics ]=============================
|                                                                             |
|  Number of variables:         87638                                         |
|  Number of clauses:          161767                                         |
|  Parse time:                   0.03 s                                       |
|                                                                             |
============================[ Search Statistics ]==============================
| Conflicts |          ORIGINAL         |          LEARNT          | Progress |
|           |    Vars  Clauses Literals |    Limit  Clauses Lit/Cl |          |
===============================================================================
|       100 |   63781   110316   275354 |    40449      100     19 | 27.222 % |
|       250 |   57740    91385   228647 |    44494      248     33 | 34.115 % |
|       475 |   57740    91385   228647 |    48943      473     64 | 34.115 % |
|       812 |   57719    91298   228440 |    53837      809     54 | 34.139 % |
|      1318 |   57719    91298   228440 |    59221     1315    118 | 34.139 % |
|      2077 |   57677    91148   228019 |    65143     2040    101 | 34.187 % |
|      3216 |   57660    91036   227769 |    71658     3176     82 | 34.207 % |
|      4924 |   57629    90861   227376 |    78824     4785     78 | 34.242 % |
|      7486 |   57238    89610   224373 |    86706     7203     79 | 34.688 % |
|     11330 |   57215    89204   223418 |    95377    11031     85 | 34.714 % |
|     17096 |   56941    87976   220595 |   104914    13758     85 | 35.027 % |
===============================================================================
restarts              : 63
conflicts             : 18988          (7709 /sec)
decisions             : 86960          (0.00 % random) (35306 /sec)
propagations          : 24766819       (10055280 /sec)
conflict literals     : 1570202        (43.13 % deleted)
Memory used           : 44.71 MB
CPU time              : 2.46307 s

INDETERMINATE
